g3 0 1 0	# problem powell20
 100 100 1 0 0	# vars, constraints, objectives, ranges, eqns
 0 1	# nonlinear constraints, objectives
 0 0	# network constraints: nonlinear, linear
 0 100 0	# nonlinear vars in constraints, objectives, both
 0 0 0 1	# linear network variables; functions; arith, flags
 0 0 0 0 0	# discrete variables: binary, integer, nonlinear (b,c,o)
 200 100	# nonzeros in Jacobian, gradients
 0 0	# max name lengths: constraints, variables
 0 0 0 0 0	# common exprs: b,c,o,c1,o1
C0
n0
C1
n0
C2
n0
C3
n0
C4
n0
C5
n0
C6
n0
C7
n0
C8
n0
C9
n0
C10
n0
C11
n0
C12
n0
C13
n0
C14
n0
C15
n0
C16
n0
C17
n0
C18
n0
C19
n0
C20
n0
C21
n0
C22
n0
C23
n0
C24
n0
C25
n0
C26
n0
C27
n0
C28
n0
C29
n0
C30
n0
C31
n0
C32
n0
C33
n0
C34
n0
C35
n0
C36
n0
C37
n0
C38
n0
C39
n0
C40
n0
C41
n0
C42
n0
C43
n0
C44
n0
C45
n0
C46
n0
C47
n0
C48
n0
C49
n0
C50
n0
C51
n0
C52
n0
C53
n0
C54
n0
C55
n0
C56
n0
C57
n0
C58
n0
C59
n0
C60
n0
C61
n0
C62
n0
C63
n0
C64
n0
C65
n0
C66
n0
C67
n0
C68
n0
C69
n0
C70
n0
C71
n0
C72
n0
C73
n0
C74
n0
C75
n0
C76
n0
C77
n0
C78
n0
C79
n0
C80
n0
C81
n0
C82
n0
C83
n0
C84
n0
C85
n0
C86
n0
C87
n0
C88
n0
C89
n0
C90
n0
C91
n0
C92
n0
C93
n0
C94
n0
C95
n0
C96
n0
C97
n0
C98
n0
C99
n0
O0 0
o54
100
o2
n0.5
o5
v0
n2
o2
n0.5
o5
v1
n2
o2
n0.5
o5
v2
n2
o2
n0.5
o5
v3
n2
o2
n0.5
o5
v4
n2
o2
n0.5
o5
v5
n2
o2
n0.5
o5
v6
n2
o2
n0.5
o5
v7
n2
o2
n0.5
o5
v8
n2
o2
n0.5
o5
v9
n2
o2
n0.5
o5
v10
n2
o2
n0.5
o5
v11
n2
o2
n0.5
o5
v12
n2
o2
n0.5
o5
v13
n2
o2
n0.5
o5
v14
n2
o2
n0.5
o5
v15
n2
o2
n0.5
o5
v16
n2
o2
n0.5
o5
v17
n2
o2
n0.5
o5
v18
n2
o2
n0.5
o5
v19
n2
o2
n0.5
o5
v20
n2
o2
n0.5
o5
v21
n2
o2
n0.5
o5
v22
n2
o2
n0.5
o5
v23
n2
o2
n0.5
o5
v24
n2
o2
n0.5
o5
v25
n2
o2
n0.5
o5
v26
n2
o2
n0.5
o5
v27
n2
o2
n0.5
o5
v28
n2
o2
n0.5
o5
v29
n2
o2
n0.5
o5
v30
n2
o2
n0.5
o5
v31
n2
o2
n0.5
o5
v32
n2
o2
n0.5
o5
v33
n2
o2
n0.5
o5
v34
n2
o2
n0.5
o5
v35
n2
o2
n0.5
o5
v36
n2
o2
n0.5
o5
v37
n2
o2
n0.5
o5
v38
n2
o2
n0.5
o5
v39
n2
o2
n0.5
o5
v40
n2
o2
n0.5
o5
v41
n2
o2
n0.5
o5
v42
n2
o2
n0.5
o5
v43
n2
o2
n0.5
o5
v44
n2
o2
n0.5
o5
v45
n2
o2
n0.5
o5
v46
n2
o2
n0.5
o5
v47
n2
o2
n0.5
o5
v48
n2
o2
n0.5
o5
v49
n2
o2
n0.5
o5
v50
n2
o2
n0.5
o5
v51
n2
o2
n0.5
o5
v52
n2
o2
n0.5
o5
v53
n2
o2
n0.5
o5
v54
n2
o2
n0.5
o5
v55
n2
o2
n0.5
o5
v56
n2
o2
n0.5
o5
v57
n2
o2
n0.5
o5
v58
n2
o2
n0.5
o5
v59
n2
o2
n0.5
o5
v60
n2
o2
n0.5
o5
v61
n2
o2
n0.5
o5
v62
n2
o2
n0.5
o5
v63
n2
o2
n0.5
o5
v64
n2
o2
n0.5
o5
v65
n2
o2
n0.5
o5
v66
n2
o2
n0.5
o5
v67
n2
o2
n0.5
o5
v68
n2
o2
n0.5
o5
v69
n2
o2
n0.5
o5
v70
n2
o2
n0.5
o5
v71
n2
o2
n0.5
o5
v72
n2
o2
n0.5
o5
v73
n2
o2
n0.5
o5
v74
n2
o2
n0.5
o5
v75
n2
o2
n0.5
o5
v76
n2
o2
n0.5
o5
v77
n2
o2
n0.5
o5
v78
n2
o2
n0.5
o5
v79
n2
o2
n0.5
o5
v80
n2
o2
n0.5
o5
v81
n2
o2
n0.5
o5
v82
n2
o2
n0.5
o5
v83
n2
o2
n0.5
o5
v84
n2
o2
n0.5
o5
v85
n2
o2
n0.5
o5
v86
n2
o2
n0.5
o5
v87
n2
o2
n0.5
o5
v88
n2
o2
n0.5
o5
v89
n2
o2
n0.5
o5
v90
n2
o2
n0.5
o5
v91
n2
o2
n0.5
o5
v92
n2
o2
n0.5
o5
v93
n2
o2
n0.5
o5
v94
n2
o2
n0.5
o5
v95
n2
o2
n0.5
o5
v96
n2
o2
n0.5
o5
v97
n2
o2
n0.5
o5
v98
n2
o2
n0.5
o5
v99
n2
x100
0 0
1 -2.5
2 0
3 -4.5
4 0
5 -6.5
6 0
7 -8.5
8 0
9 -10.5
10 0
11 -12.5
12 0
13 -14.5
14 0
15 -16.5
16 0
17 -18.5
18 0
19 -20.5
20 0
21 -22.5
22 0
23 -24.5
24 0
25 -26.5
26 0
27 -28.5
28 0
29 -30.5
30 0
31 -32.5
32 0
33 -34.5
34 0
35 -36.5
36 0
37 -38.5
38 0
39 -40.5
40 0
41 -42.5
42 0
43 -44.5
44 0
45 -46.5
46 0
47 -48.5
48 0
49 -50.5
50 0
51 -52.5
52 0
53 -54.5
54 0
55 -56.5
56 0
57 -58.5
58 0
59 -60.5
60 0
61 -62.5
62 0
63 -64.5
64 0
65 -66.5
66 0
67 -68.5
68 0
69 -70.5
70 0
71 -72.5
72 0
73 -74.5
74 0
75 -76.5
76 0
77 -78.5
78 0
79 -80.5
80 0
81 -82.5
82 0
83 -84.5
84 0
85 -86.5
86 0
87 -88.5
88 0
89 -90.5
90 0
91 -92.5
92 0
93 -94.5
94 0
95 -96.5
96 0
97 -98.5
98 0
99 -100.5
r
2 -1.5
2 1.5
2 -3.5
2 3.5
2 -5.5
2 5.5
2 -7.5
2 7.5
2 -9.5
2 9.5
2 -11.5
2 11.5
2 -13.5
2 13.5
2 -15.5
2 15.5
2 -17.5
2 17.5
2 -19.5
2 19.5
2 -21.5
2 21.5
2 -23.5
2 23.5
2 -25.5
2 25.5
2 -27.5
2 27.5
2 -29.5
2 29.5
2 -31.5
2 31.5
2 -33.5
2 33.5
2 -35.5
2 35.5
2 -37.5
2 37.5
2 -39.5
2 39.5
2 -41.5
2 41.5
2 -43.5
2 43.5
2 -45.5
2 45.5
2 -47.5
2 47.5
2 -49.5
2 49.5
2 -51.5
2 51.5
2 -53.5
2 53.5
2 -55.5
2 55.5
2 -57.5
2 57.5
2 -59.5
2 59.5
2 -61.5
2 61.5
2 -63.5
2 63.5
2 -65.5
2 65.5
2 -67.5
2 67.5
2 -69.5
2 69.5
2 -71.5
2 71.5
2 -73.5
2 73.5
2 -75.5
2 75.5
2 -77.5
2 77.5
2 -79.5
2 79.5
2 -81.5
2 81.5
2 -83.5
2 83.5
2 -85.5
2 85.5
2 -87.5
2 87.5
2 -89.5
2 89.5
2 -91.5
2 91.5
2 -93.5
2 93.5
2 -95.5
2 95.5
2 -97.5
2 97.5
2 -99.5
2 99.5
b
3
3
3
3
3
3
3
3
3
3
3
3
3
3
3
3
3
3
3
3
3
3
3
3
3
3
3
3
3
3
3
3
3
3
3
3
3
3
3
3
3
3
3
3
3
3
3
3
3
3
3
3
3
3
3
3
3
3
3
3
3
3
3
3
3
3
3
3
3
3
3
3
3
3
3
3
3
3
3
3
3
3
3
3
3
3
3
3
3
3
3
3
3
3
3
3
3
3
3
3
k99
2
4
6
8
10
12
14
16
18
20
22
24
26
28
30
32
34
36
38
40
42
44
46
48
50
52
54
56
58
60
62
64
66
68
70
72
74
76
78
80
82
84
86
88
90
92
94
96
98
100
102
104
106
108
110
112
114
116
118
120
122
124
126
128
130
132
134
136
138
140
142
144
146
148
150
152
154
156
158
160
162
164
166
168
170
172
174
176
178
180
182
184
186
188
190
192
194
196
198
J0 2
0 -1
1 1
J1 2
1 -1
2 1
J2 2
2 -1
3 1
J3 2
3 -1
4 1
J4 2
4 -1
5 1
J5 2
5 -1
6 1
J6 2
6 -1
7 1
J7 2
7 -1
8 1
J8 2
8 -1
9 1
J9 2
9 -1
10 1
J10 2
10 -1
11 1
J11 2
11 -1
12 1
J12 2
12 -1
13 1
J13 2
13 -1
14 1
J14 2
14 -1
15 1
J15 2
15 -1
16 1
J16 2
16 -1
17 1
J17 2
17 -1
18 1
J18 2
18 -1
19 1
J19 2
19 -1
20 1
J20 2
20 -1
21 1
J21 2
21 -1
22 1
J22 2
22 -1
23 1
J23 2
23 -1
24 1
J24 2
24 -1
25 1
J25 2
25 -1
26 1
J26 2
26 -1
27 1
J27 2
27 -1
28 1
J28 2
28 -1
29 1
J29 2
29 -1
30 1
J30 2
30 -1
31 1
J31 2
31 -1
32 1
J32 2
32 -1
33 1
J33 2
33 -1
34 1
J34 2
34 -1
35 1
J35 2
35 -1
36 1
J36 2
36 -1
37 1
J37 2
37 -1
38 1
J38 2
38 -1
39 1
J39 2
39 -1
40 1
J40 2
40 -1
41 1
J41 2
41 -1
42 1
J42 2
42 -1
43 1
J43 2
43 -1
44 1
J44 2
44 -1
45 1
J45 2
45 -1
46 1
J46 2
46 -1
47 1
J47 2
47 -1
48 1
J48 2
48 -1
49 1
J49 2
49 -1
50 1
J50 2
50 -1
51 1
J51 2
51 -1
52 1
J52 2
52 -1
53 1
J53 2
53 -1
54 1
J54 2
54 -1
55 1
J55 2
55 -1
56 1
J56 2
56 -1
57 1
J57 2
57 -1
58 1
J58 2
58 -1
59 1
J59 2
59 -1
60 1
J60 2
60 -1
61 1
J61 2
61 -1
62 1
J62 2
62 -1
63 1
J63 2
63 -1
64 1
J64 2
64 -1
65 1
J65 2
65 -1
66 1
J66 2
66 -1
67 1
J67 2
67 -1
68 1
J68 2
68 -1
69 1
J69 2
69 -1
70 1
J70 2
70 -1
71 1
J71 2
71 -1
72 1
J72 2
72 -1
73 1
J73 2
73 -1
74 1
J74 2
74 -1
75 1
J75 2
75 -1
76 1
J76 2
76 -1
77 1
J77 2
77 -1
78 1
J78 2
78 -1
79 1
J79 2
79 -1
80 1
J80 2
80 -1
81 1
J81 2
81 -1
82 1
J82 2
82 -1
83 1
J83 2
83 -1
84 1
J84 2
84 -1
85 1
J85 2
85 -1
86 1
J86 2
86 -1
87 1
J87 2
87 -1
88 1
J88 2
88 -1
89 1
J89 2
89 -1
90 1
J90 2
90 -1
91 1
J91 2
91 -1
92 1
J92 2
92 -1
93 1
J93 2
93 -1
94 1
J94 2
94 -1
95 1
J95 2
95 -1
96 1
J96 2
96 -1
97 1
J97 2
97 -1
98 1
J98 2
98 -1
99 1
J99 2
0 1
99 -1
G0 100
0 0
1 0
2 0
3 0
4 0
5 0
6 0
7 0
8 0
9 0
10 0
11 0
12 0
13 0
14 0
15 0
16 0
17 0
18 0
19 0
20 0
21 0
22 0
23 0
24 0
25 0
26 0
27 0
28 0
29 0
30 0
31 0
32 0
33 0
34 0
35 0
36 0
37 0
38 0
39 0
40 0
41 0
42 0
43 0
44 0
45 0
46 0
47 0
48 0
49 0
50 0
51 0
52 0
53 0
54 0
55 0
56 0
57 0
58 0
59 0
60 0
61 0
62 0
63 0
64 0
65 0
66 0
67 0
68 0
69 0
70 0
71 0
72 0
73 0
74 0
75 0
76 0
77 0
78 0
79 0
80 0
81 0
82 0
83 0
84 0
85 0
86 0
87 0
88 0
89 0
90 0
91 0
92 0
93 0
94 0
95 0
96 0
97 0
98 0
99 0
